read_restart	thermo_end.%.110000

#units		metal
#dimension	3
#boundary	p p p
#timestep	0.001

#atom_style	atomic

# ------------- Define the user variables
# ------------- First 2 variables are the l, r coordinates of the centre region

variable	trans_dim equal 30
variable	lattice_parameter equal 3.3040

variable	total_unit_cells_x equal 9080
variable	centre_reg_length equal 10

# ------------- Compute the foil boundaries and the location of the central block

variable        foil_front_location equal "v_total_unit_cells_x/3"
variable	foil_rear_location equal "v_foil_front_location*2"
print           "Foil front (lattice units)= ${foil_front_location}"
print           "Foil rear (lattice units)= ${foil_rear_location}"

variable        foil_front_region_end equal "v_foil_front_location + v_centre_reg_length"

variable        centre_left equal "round( (v_foil_front_location+v_foil_rear_location)/2 ) - v_centre_reg_length/2" 
variable        centre_right equal "round( (v_foil_front_location+v_foil_rear_location)/2 ) + v_centre_reg_length/2"
print           "centre low bound = ${centre_left}"
print           "centre high bound = ${centre_right}"

# ------------- End of computes

lattice		bcc ${lattice_parameter} orient x 1 0 0 orient y 0 1 0 orient z 0 0 1
#region		box block 0 ${total_unit_cells_x} 0 ${trans_dim} 0 ${trans_dim} units lattice

#create_box	1 box

region		foil block ${foil_front_location} ${foil_rear_location} INF INF INF INF units lattice
#create_atoms	1 region foil

set		region foil type 1
group		foil region foil

region		foil_centre block ${centre_left} ${centre_right} INF INF INF INF units lattice
group		foil_centre region foil_centre

region		whole_sim block 0 ${total_unit_cells_x} INF INF INF INF units lattice
group		whole_sim region whole_sim

region          foil_front block ${foil_front_location} ${foil_front_region_end} INF INF INF INF units lattice
group           foil_front region foil_front

pair_style      eam/alloy
pair_coeff      * * Ta2_Ravelo_2013.eam.alloy Ta

# ------------- Define the chunks and variable calculations

compute		per_atom_pressure all stress/atom NULL

compute		chunk all chunk/atom bin/1d x 0 4 units lattice

# ------------- Calculate the potential energy per atom in the foil
compute         per_atom_energy all pe/atom
compute         voro all voronoi/atom

# ------------- Calculate the normalised pressure in the foil centre and across the whole foil
compute		foil_centre_pressure foil_centre reduce sum c_per_atom_pressure[1]

compute		whole_sim_pressure whole_sim reduce sum c_per_atom_pressure[1] c_per_atom_pressure[2] c_per_atom_pressure[3]

variable	block_vol equal "(v_centre_right - v_centre_left)*(v_trans_dim)^2*(v_lattice_parameter)^3"
print		"Block vol (Ang^3)= ${block_vol}"

variable 	volume equal vol
variable	v0 equal "v_volume"

variable	foil_centre_pressure_norm equal c_foil_centre_pressure*-0.0001/v_block_vol

variable	whole_sim_pressure_norm equal (c_whole_sim_pressure[1]+c_whole_sim_pressure[2]+c_whole_sim_pressure[3])*-0.0001/(3*v_volume)

# ------------- Thermalisation section

compute		foil_temp foil temp
compute		foil_centre_temp foil_centre temp
compute		whole_sim_temp whole_sim temp

compute         pe_tot all pe
compute         ke_tot all ke

thermo		100
thermo_style	custom step temp c_foil_temp c_foil_centre_temp v_foil_centre_pressure_norm v_whole_sim_pressure_norm v_volume v_v0 press c_pe_tot c_ke_tot etotal

# ------------- nve integration and relaxation

# ------------- Start the TTM section

reset_timestep	0

fix             ttm all ttm/mod 123456 Ta_parameters.txt 3000 1 1 temp_infile.txt 100 temp_outfile.txt

fix		move all nve

# ------------- Calculate the normalised pressure in the foil centre
fix		chunk_output all ave/chunk 100 1 100 chunk temp density/mass file chunk.txt

compute		chunk_vcm all vcm/chunk chunk
fix		chunk_vcm_out all ave/time 100 1 100 c_chunk_vcm[*] file vcm_chunk_out.txt mode vector

dump		ttm_dump all custom 5000 ttm_dump.*.txt id type x y z c_per_atom_energy c_per_atom_pressure[1] c_per_atom_pressure[2] c_per_atom_pressure[3] c_voro[1] c_voro[2] vx vy vz mass

compute         pressure_chunk_pxx all reduce/chunk chunk sum c_per_atom_pressure[1]
fix             chunk_pressure_output_pxx all ave/time 100 1 100 c_pressure_chunk_pxx file pressure_chunk_pxx.txt mode vector

compute         pressure_chunk_pyy all reduce/chunk chunk sum c_per_atom_pressure[2]
fix             chunk_pressure_output_pyy all ave/time 100 1 100 c_pressure_chunk_pyy file pressure_chunk_pyy.txt mode vector

compute         pressure_chunk_pzz all reduce/chunk chunk sum c_per_atom_pressure[3]
fix             chunk_pressure_output_pzz all ave/time 100 1 100 c_pressure_chunk_pzz file pressure_chunk_pzz.txt mode vector

compute         voronoi_chunk all reduce/chunk chunk sum c_voro[1]
fix             chunk_voronoi_output all ave/time 100 1 100 c_voronoi_chunk file voronoi_chunk.txt mode vector

run             60000

write_restart   ttm_end.%.* nfile 1

unfix           ttm

restart		55000 poly.%.* nfile 1
run             340000

