# ------------- Set the simulation parameters

units		metal
dimension	3
boundary	p p p
timestep	0.001

atom_style	atomic

# ------------- Define the user variables
# ------------- Set the dimensions of the simulation box, and the left and right co-ordinates of a central region for probing P,T conditions

variable	trans_dim equal 30
variable	lattice_parameter equal 3.3040

# ------------- NOTE: The total simulation box length and central region length are defined in lattice units here

variable	total_unit_cells_x equal 2724
variable	centre_reg_length equal 10

# ------------- Compute the foil boundaries and the location of the central region

variable        foil_front_location equal "v_total_unit_cells_x/3"
variable	foil_rear_location equal "v_foil_front_location*2"
print           "Foil front (lattice units)= ${foil_front_location}"
print           "Foil rear (lattice units)= ${foil_rear_location}"

variable        foil_front_region_end equal "v_foil_front_location + v_centre_reg_length"

variable        centre_left equal "round( (v_foil_front_location+v_foil_rear_location)/2 ) - v_centre_reg_length/2" 
variable        centre_right equal "round( (v_foil_front_location+v_foil_rear_location)/2 ) + v_centre_reg_length/2"
print           "centre low bound = ${centre_left}"
print           "centre high bound = ${centre_right}"

# ------------- Construct the lattice and fill the simulation box with atoms

lattice		bcc ${lattice_parameter} orient x 1 0 0 orient y 0 1 0 orient z 0 0 1
region		box block 0 ${total_unit_cells_x} 0 ${trans_dim} 0 ${trans_dim} units lattice

create_box	1 box

# ------------- Define regions of interest - the whole foil, the whole simulation box and front of the foil

region		foil block ${foil_front_location} ${foil_rear_location} INF INF INF INF units lattice
create_atoms	1 region foil
set		region foil type 1
group		foil region foil

region		foil_centre block ${centre_left} ${centre_right} INF INF INF INF units lattice
group		foil_centre region foil_centre

region		whole_sim block 0 ${total_unit_cells_x} INF INF INF INF units lattice
group		whole_sim region whole_sim

region          foil_front block ${foil_front_location} ${foil_front_region_end} INF INF INF INF units lattice
group           foil_front region foil_front

# ------------- Point LAMMPS to the correct potential file (should be in the run directory)

pair_style      eam/alloy
pair_coeff      * * Ta2_Ravelo_2013.eam.alloy Ta

# ------------- Define the chunks, enables spatial profiles to be output

compute		per_atom_pressure all stress/atom NULL
compute		chunk all chunk/atom bin/1d x 0 4 units lattice

# ------------- Define the computes, including energies and pressures

compute         per_atom_energy all pe/atom
compute         voro all voronoi/atom

compute		foil_centre_pressure foil_centre reduce sum c_per_atom_pressure[1]
compute		whole_sim_pressure whole_sim reduce sum c_per_atom_pressure[1] c_per_atom_pressure[2] c_per_atom_pressure[3]

variable	block_vol equal "(v_centre_right - v_centre_left)*(v_trans_dim)^2*(v_lattice_parameter)^3"
print		"Block vol (Ang^3)= ${block_vol}"

variable 	volume equal vol
variable	v0 equal "v_volume"

variable	foil_centre_pressure_norm equal c_foil_centre_pressure*-0.0001/v_block_vol

variable	whole_sim_pressure_norm equal (c_whole_sim_pressure[1]+c_whole_sim_pressure[2]+c_whole_sim_pressure[3])*-0.0001/(3*v_volume)

# ------------- Thermalisation section
# ------------- Define the initial velocity distribution, give time to reach equilibrium under a barostat

velocity        all create 300 12345 mom yes rot no

fix             thermalisation all npt temp 300 300 1 iso 0 0 1 drag 1

neigh_modify    every 1 delay 0 check yes

compute		foil_temp foil temp
compute		foil_centre_temp foil_centre temp
compute		whole_sim_temp whole_sim temp

compute         pe_tot all pe
compute         ke_tot all ke

# ------------- Set the variables which should output in the log file

thermo		100
thermo_style	custom step temp c_foil_temp c_foil_centre_temp v_foil_centre_pressure_norm v_whole_sim_pressure_norm v_volume v_v0 press c_pe_tot c_ke_tot etotal

run             80000

unfix		thermalisation

# ------------- nve integration and relaxation

fix		nve_eqm all nve

dump            thermo_dump all custom 10000 thermo_dump.*.txt id type x y z

run		30000

unfix		nve_eqm
undump		thermo_dump

# ------------- Output the data to a restart file, after the system has reached equilibrium

write_restart   thermo_end.%.* nfile 1


